Instance Name : rc107
Date : 2022-07-19
Solution
Route 1 : 62 31 29 27 26 28 30 32 33 91
Route 2 : 90
Route 3 : 72 71 93 94 67 50 34 80
Route 4 : 92 95 84 85 63 51 76 89 56
Route 5 : 11 12 14 47 17 16 15 13 9 10
Route 6 : 82 99 57 86 59 97 58 74
Route 7 : 2 6 7 8 5 3 1 45 46 4 100
Route 8 : 83 64 22 19 18 21 48 49 20 66
Route 9 : 69 98 88 53 78 73 79 60 55 70 68
Route 10 : 65 52 87 75 77 25 23 24
Route 11 : 41 42 44 40 36 35 37 38 43 39
Route 12 : 61 81 54 96
